ThreeColour/JavaBacktracker/easy3col
p edge 7 15
e 1 2
e 1 7
e 2 3
e 2 7
e 3 4
e 3 7
e 4 5
e 4 7
e 5 6
e 6 7